10000   52   83   11   7   49   62   31   32   61   
2   10000   43   17   75   67   39   10   22   8   
29   62   10000   98   51   6   42   76   92   2   
56   2   92   10000   44   27   7   40   40   97   
56   76   40   24   10000   95   59   49   85   8   
2   40   22   35   40   10000   76   14   93   72   
48   86   39   37   5   26   10000   70   39   32   
47   23   16   23   86   66   9   10000   79   5   
67   3   10   66   72   21   24   46   10000   9   
62   25   43   35   2   16   48   53   8   10000   
